(declare-const X String)
; (\d{1,3},(\d{3},)*\d{3}(\.\d{1,3})?|\d{1,3}(\.\d{3})?)$
(assert (not (str.in_re X (re.++ (re.union (re.++ ((_ re.loop 1 3) (re.range "0" "9")) (str.to_re ",") (re.* (re.++ ((_ re.loop 3 3) (re.range "0" "9")) (str.to_re ","))) ((_ re.loop 3 3) (re.range "0" "9")) (re.opt (re.++ (str.to_re ".") ((_ re.loop 1 3) (re.range "0" "9"))))) (re.++ ((_ re.loop 1 3) (re.range "0" "9")) (re.opt (re.++ (str.to_re ".") ((_ re.loop 3 3) (re.range "0" "9")))))) (str.to_re "\u{a}")))))
; YAHOO.*Host\u{3A}.*\u{2F}cs\u{2F}pop4\u{2F}
(assert (str.in_re X (re.++ (str.to_re "YAHOO") (re.* re.allchar) (str.to_re "Host:") (re.* re.allchar) (str.to_re "/cs/pop4/\u{a}"))))
; /\u{28}compatible\u{3b}[A-Z]*\u{3b}\u{29}\u{d}\u{a}/H
(assert (str.in_re X (re.++ (str.to_re "/(compatible;") (re.* (re.range "A" "Z")) (str.to_re ";)\u{d}\u{a}/H\u{a}"))))
(check-sat)
